words_hard_train/6246.qaiger
aag 48 14 0 1 34
2
4
8
10
16
18
22
26
38
44
46
68
88
90
97
6 3 5
12 9 11
14 7 13
20 16 18
24 12 22
28 25 27
30 20 29
32 6 12
34 33 23
36 30 35
40 37 39
42 15 41
48 45 47
50 48 27
52 51 22
54 53 12
56 33 22
58 49 26
60 57 59
62 55 61
64 17 19
66 63 64
70 66 69
72 71 38
74 42 73
76 50 64
78 76 23
80 79 38
82 81 69
84 74 83
86 82 38
92 89 91
94 87 93
96 85 95
i0 1 x1[2]
i1 2 y1[2]
i2 1 x1[3]
i3 2 y1[3]
i4 2 y2[4]
i5 2 y2[5]
i6 2 y2[3]
i7 2 y2[2]
i8 2 y2[7]
i9 2 y2[0]
i10 2 y2[1]
i11 2 y2[6]
i12 1 x1[7]
i13 2 y1[7]
o0 bv[0]
c
simplified
  >
    abs
      2 y2
    or
      2 y1
      or
        115
        1 x1
