words_hard_train/6246.qaiger.qdimacs
p cnf 48 103
a 1 4 44 0
e 2 3 5 6 7 8 9 10 11 12 13 14 15 16 17 18 19 20 21 22 23 24 25 26 27 28 29 30 31 32 33 34 35 36 37 38 39 40 41 42 43 45 46 47 48 0
1 2 3 0
-1 -3 0
-2 -3 0
4 5 6 0
-4 -6 0
-5 -6 0
3 6 7 0
-3 -7 0
-6 -7 0
-8 -9 10 0
8 -10 0
9 -10 0
-6 -11 12 0
6 -12 0
11 -12 0
12 13 14 0
-12 -14 0
-13 -14 0
-10 14 15 0
10 -15 0
-14 -15 0
-3 -6 16 0
3 -16 0
6 -16 0
16 11 17 0
-16 -17 0
-11 -17 0
-15 17 18 0
15 -18 0
-17 -18 0
18 19 20 0
-18 -20 0
-19 -20 0
7 20 21 0
-7 -21 0
-20 -21 0
22 23 24 0
-22 -24 0
-23 -24 0
-24 13 25 0
24 -25 0
-13 -25 0
25 -11 26 0
-25 -26 0
11 -26 0
26 -6 27 0
-26 -27 0
6 -27 0
16 -11 28 0
-16 -28 0
11 -28 0
24 -13 29 0
-24 -29 0
13 -29 0
28 29 30 0
-28 -30 0
-29 -30 0
27 30 31 0
-27 -31 0
-30 -31 0
8 9 32 0
-8 -32 0
-9 -32 0
31 -32 33 0
-31 -33 0
32 -33 0
-33 34 35 0
33 -35 0
-34 -35 0
35 -19 36 0
-35 -36 0
19 -36 0
-21 36 37 0
21 -37 0
-36 -37 0
-25 -32 38 0
25 -38 0
32 -38 0
-38 11 39 0
38 -39 0
-11 -39 0
39 -19 40 0
-39 -40 0
19 -40 0
40 34 41 0
-40 -41 0
-34 -41 0
-37 41 42 0
37 -42 0
-41 -42 0
-41 -19 43 0
41 -43 0
19 -43 0
44 45 46 0
-44 -46 0
-45 -46 0
43 46 47 0
-43 -47 0
-46 -47 0
42 47 48 0
-42 -48 0
-47 -48 0
-48 0
